certificates/rado_a9_c220_N30.cnf
c Rad2 upper bound instance: x1 + 9*x2 - x3 = 220, interval [1,30]
p cnf 30 196
1 6 25 0
-1 -6 -25 0
1 15 26 0
-1 -15 -26 0
1 24 27 0
-1 -24 -27 0
2 7 25 0
-2 -7 -25 0
2 16 26 0
-2 -16 -26 0
2 25 27 0
-2 -25 -27 0
3 8 25 0
-3 -8 -25 0
3 17 26 0
-3 -17 -26 0
3 26 27 0
-3 -26 -27 0
4 9 25 0
-4 -9 -25 0
4 18 26 0
-4 -18 -26 0
4 27 0
-4 -27 0
1 5 24 0
-1 -5 -24 0
5 10 25 0
-5 -10 -25 0
5 19 26 0
-5 -19 -26 0
5 27 28 0
-5 -27 -28 0
2 6 24 0
-2 -6 -24 0
6 11 25 0
-6 -11 -25 0
6 20 26 0
-6 -20 -26 0
6 27 29 0
-6 -27 -29 0
3 7 24 0
-3 -7 -24 0
7 12 25 0
-7 -12 -25 0
7 21 26 0
-7 -21 -26 0
7 27 30 0
-7 -27 -30 0
4 8 24 0
-4 -8 -24 0
8 13 25 0
-8 -13 -25 0
8 22 26 0
-8 -22 -26 0
5 9 24 0
-5 -9 -24 0
9 14 25 0
-9 -14 -25 0
9 23 26 0
-9 -23 -26 0
6 10 24 0
-6 -10 -24 0
10 15 25 0
-10 -15 -25 0
10 24 26 0
-10 -24 -26 0
7 11 24 0
-7 -11 -24 0
11 16 25 0
-11 -16 -25 0
11 25 26 0
-11 -25 -26 0
8 12 24 0
-8 -12 -24 0
12 17 25 0
-12 -17 -25 0
12 26 0
-12 -26 0
9 13 24 0
-9 -13 -24 0
13 18 25 0
-13 -18 -25 0
13 26 27 0
-13 -26 -27 0
1 14 23 0
-1 -14 -23 0
10 14 24 0
-10 -14 -24 0
14 19 25 0
-14 -19 -25 0
14 26 28 0
-14 -26 -28 0
2 15 23 0
-2 -15 -23 0
11 15 24 0
-11 -15 -24 0
15 20 25 0
-15 -20 -25 0
15 26 29 0
-15 -26 -29 0
3 16 23 0
-3 -16 -23 0
12 16 24 0
-12 -16 -24 0
16 21 25 0
-16 -21 -25 0
16 26 30 0
-16 -26 -30 0
4 17 23 0
-4 -17 -23 0
13 17 24 0
-13 -17 -24 0
17 22 25 0
-17 -22 -25 0
5 18 23 0
-5 -18 -23 0
14 18 24 0
-14 -18 -24 0
18 23 25 0
-18 -23 -25 0
6 19 23 0
-6 -19 -23 0
15 19 24 0
-15 -19 -24 0
19 24 25 0
-19 -24 -25 0
7 20 23 0
-7 -20 -23 0
16 20 24 0
-16 -20 -24 0
20 25 0
-20 -25 0
8 21 23 0
-8 -21 -23 0
17 21 24 0
-17 -21 -24 0
21 25 26 0
-21 -25 -26 0
9 22 23 0
-9 -22 -23 0
18 22 24 0
-18 -22 -24 0
22 25 27 0
-22 -25 -27 0
1 22 23 0
-1 -22 -23 0
10 23 0
-10 -23 0
19 23 24 0
-19 -23 -24 0
23 25 28 0
-23 -25 -28 0
2 22 24 0
-2 -22 -24 0
11 23 24 0
-11 -23 -24 0
20 24 0
-20 -24 0
24 25 29 0
-24 -25 -29 0
3 22 25 0
-3 -22 -25 0
12 23 25 0
-12 -23 -25 0
21 24 25 0
-21 -24 -25 0
25 30 0
-25 -30 0
4 22 26 0
-4 -22 -26 0
13 23 26 0
-13 -23 -26 0
22 24 26 0
-22 -24 -26 0
5 22 27 0
-5 -22 -27 0
14 23 27 0
-14 -23 -27 0
23 24 27 0
-23 -24 -27 0
6 22 28 0
-6 -22 -28 0
15 23 28 0
-15 -23 -28 0
24 28 0
-24 -28 0
7 22 29 0
-7 -22 -29 0
16 23 29 0
-16 -23 -29 0
8 22 30 0
-8 -22 -30 0
17 23 30 0
-17 -23 -30 0
24 26 30 0
-24 -26 -30 0
