certificates/rado_a9_c220_N30.drat
-27 -30 0
-30 0
25 0
-20 0
24 0
-28 0
-29 0
-19 0
-21 0
27 0
-4 0
-1 0
-2 0
-22 0
-23 0
0
